p cnf 19 9
a 1 0
e 2 0
a 3 4 0
e 5 6 7 8 0
a 9 10 11 12 0
e 13 14 15 0
a 16 17 18 0
e 19 0
-15 -17 -7 -13 -19 0
10 -5 -14 4 0
-9 -19 1 -3 5 0
15 -7 3 11 0
18 -1 0
4 5 16 -6 0
-14 8 2 0
17 -3 -1 9 2 0
7 12 0
